min: D;

X1 >= XD - 2;
X1 >=  - XD + 2;
Y1 >= YD - 8;
Y1 >=  - YD + 8;

X2 >= XD - 10;
X2 >=  - XD + 10;
Y2 >= YD - 7;
Y2 >= -YD + 7;

X3 >= XD - 1;
X3 >=  - XD + 1;
Y3 >= YD - 3;
Y3 >=  - YD + 3;

X4 >= XD - 6;
X4 >=  - XD + 6;
Y4 >= YD - 4;
Y4 >=  - YD + 4;

X5 >= XD - 8;
X5 >=  - XD + 8;
Y5 >= YD - 2;
Y5 >=  - YD + 2;

D >= X1+Y1;
D >= X2+Y2;
D >= X3+Y3;
D >= X4+Y4;
D >= X5+Y5;